21747
1 1 0 0 1 1 1 1 1 0 1 0 1 1 1 0 1 0 1 1 0 1 1 0 1 0 0 1 1 0 
18 19 21 27 21 12 21 27 22 28 4 28 13 1 28 18 1 10 22 0 18 16 5 24 10 18 27 19 4 21 19 19 4 16 27 6 8 8 24 16 18 8 6 4 8 19 13 21 19 14 24 16 24 16 8 6 18 8 18 7 4 0 7 8 13 12 5 14 28 12 18 12 19 8 5 13 10 5 8 16 10 0 8 7 4 13 6 5 27 7 28 6 7 7 0 13 28 6 0 28 28 21 12 18 4 0 4 24 22 13 19 4 27 12 12 8 28 7 14 8 14 12 28 19 4 16 21 12 19 0 28 24 12 10 1 8 1 13 28 10 12 22 12 12 7 5 24 21 27 7 24 0 10 0 8 28 5 16 13 13 13 27 10 24 5 27 5 4 1 21 1 8 19 14 4 21 0 10 4 10 5 21 21 19 12 8 28 10 0 21 21 21 6 4 7 12 7 21 10 19 
